p edge 20 59
e 1 3
e 1 6
e 1 9
e 1 15
e 1 18
e 2 4
e 2 6
e 2 7
e 2 14
e 2 16
e 2 18
e 2 19
e 2 20
e 3 12
e 3 13
e 3 18
e 4 5
e 4 9
e 4 12
e 4 14
e 4 15
e 4 16
e 4 17
e 5 7
e 5 12
e 5 16
e 5 17
e 5 18
e 6 10
e 6 14
e 7 10
e 7 17
e 7 18
e 8 10
e 8 12
e 8 13
e 8 16
e 8 18
e 8 20
e 9 12
e 9 16
e 9 17
e 9 20
e 10 17
e 10 18
e 10 20
e 11 18
e 11 19
e 12 16
e 13 17
e 13 18
e 13 19
e 13 20
e 14 15
e 14 20
e 15 16
e 15 17
e 15 19
e 16 20
